NAME          DCAP_3_4_2_500_SS242
ROWS
 N  OBJ
 L  CON1
 L  CON2
 L  CON3
 L  CON4
 L  CON5
 L  CON6
 L  CON7
 L  CON8
 L  CON9
 L  CON10
 L  CON11
 L  CON12
 E  CON13
 E  CON14
 E  CON15
 E  CON16
 E  CON17
 E  CON18
 E  CON19
 E  CON20
COLUMNS
    x[1,1]    OBJ       6.180167      CON1      1.000000    
    x[1,1]    CON7      -1.000000     CON8      -1.000000   
    x[1,2]    OBJ       5.039546      CON2      1.000000    
    x[1,2]    CON8      -1.000000   
    x[2,1]    OBJ       6.732585      CON3      1.000000    
    x[2,1]    CON9      -1.000000     CON10     -1.000000   
    x[2,2]    OBJ       7.443064      CON4      1.000000    
    x[2,2]    CON10     -1.000000   
    x[3,1]    OBJ       6.563535      CON5      1.000000    
    x[3,1]    CON11     -1.000000     CON12     -1.000000   
    x[3,2]    OBJ       6.054841      CON6      1.000000    
    x[3,2]    CON12     -1.000000   
    MARKER    'MARKER'                'INTORG'
    u[1,1]    OBJ       48.076654     CON1      -1.000000   
    u[1,2]    OBJ       49.466655     CON2      -1.000000   
    u[2,1]    OBJ       49.996186     CON3      -1.000000   
    u[2,2]    OBJ       32.230043     CON4      -1.000000   
    u[3,1]    OBJ       20.066487     CON5      -1.000000   
    u[3,2]    OBJ       27.484319     CON6      -1.000000   
    y[1,1,1]  OBJ       9.703169      CON7      1.367346    
    y[1,1,1]  CON13     1.000000    
    y[1,1,2]  OBJ       5.132056      CON8      0.517772    
    y[1,1,2]  CON14     1.000000    
    y[1,2,1]  OBJ       6.294990      CON7      1.119093    
    y[1,2,1]  CON15     1.000000    
    y[1,2,2]  OBJ       7.119639      CON8      1.170211    
    y[1,2,2]  CON16     1.000000    
    y[1,3,1]  OBJ       7.934076      CON7      0.770166    
    y[1,3,1]  CON17     1.000000    
    y[1,3,2]  OBJ       9.897538      CON8      0.628105    
    y[1,3,2]  CON18     1.000000    
    y[1,4,1]  OBJ       8.777922      CON7      1.395676    
    y[1,4,1]  CON19     1.000000    
    y[1,4,2]  OBJ       9.576121      CON8      1.038264    
    y[1,4,2]  CON20     1.000000    
    y[2,1,1]  OBJ       7.093465      CON9      1.367346    
    y[2,1,1]  CON13     1.000000    
    y[2,1,2]  OBJ       5.367999      CON10     0.517772    
    y[2,1,2]  CON14     1.000000    
    y[2,2,1]  OBJ       5.452476      CON9      1.119093    
    y[2,2,1]  CON15     1.000000    
    y[2,2,2]  OBJ       7.515622      CON10     1.170211    
    y[2,2,2]  CON16     1.000000    
    y[2,3,1]  OBJ       5.708404      CON9      0.770166    
    y[2,3,1]  CON17     1.000000    
    y[2,3,2]  OBJ       7.624699      CON10     0.628105    
    y[2,3,2]  CON18     1.000000    
    y[2,4,1]  OBJ       6.647676      CON9      1.395676    
    y[2,4,1]  CON19     1.000000    
    y[2,4,2]  OBJ       7.993881      CON10     1.038264    
    y[2,4,2]  CON20     1.000000    
    y[3,1,1]  OBJ       8.363712      CON11     1.367346    
    y[3,1,1]  CON13     1.000000    
    y[3,1,2]  OBJ       7.836387      CON12     0.517772    
    y[3,1,2]  CON14     1.000000    
    y[3,2,1]  OBJ       6.988485      CON11     1.119093    
    y[3,2,1]  CON15     1.000000    
    y[3,2,2]  OBJ       7.465566      CON12     1.170211    
    y[3,2,2]  CON16     1.000000    
    y[3,3,1]  OBJ       6.114039      CON11     0.770166    
    y[3,3,1]  CON17     1.000000    
    y[3,3,2]  OBJ       6.973688      CON12     0.628105    
    y[3,3,2]  CON18     1.000000    
    y[3,4,1]  OBJ       8.568029      CON11     1.395676    
    y[3,4,1]  CON19     1.000000    
    y[3,4,2]  OBJ       5.800080      CON12     1.038264    
    y[3,4,2]  CON20     1.000000    
    z[1,1]    OBJ       903.487771    CON13     1.000000    
    z[1,2]    OBJ       816.891538    CON14     1.000000    
    z[2,1]    OBJ       784.859864    CON15     1.000000    
    z[2,2]    OBJ       845.293922    CON16     1.000000    
    z[3,1]    OBJ       898.909752    CON17     1.000000    
    z[3,2]    OBJ       760.954896    CON18     1.000000    
    z[4,1]    OBJ       595.739499    CON19     1.000000    
    z[4,2]    OBJ       907.000129    CON20     1.000000    
    MARKER    'MARKER'                 'INTEND'
RHS
    RHS       CON1      -0.000000     CON2      -0.000000   
    RHS       CON3      -0.000000     CON4      -0.000000   
    RHS       CON5      -0.000000     CON6      -0.000000   
    RHS       CON7      -0.000000     CON8      -0.000000   
    RHS       CON9      -0.000000     CON10     -0.000000   
    RHS       CON11     -0.000000     CON12     -0.000000   
    RHS       CON13     1.000000      CON14     1.000000    
    RHS       CON15     1.000000      CON16     1.000000    
    RHS       CON17     1.000000      CON18     1.000000    
    RHS       CON19     1.000000      CON20     1.000000    
BOUNDS
 BV BOUND     u[1,1]  
 BV BOUND     u[1,2]  
 BV BOUND     u[2,1]  
 BV BOUND     u[2,2]  
 BV BOUND     u[3,1]  
 BV BOUND     u[3,2]  
 BV BOUND     y[1,1,1]
 BV BOUND     y[1,1,2]
 BV BOUND     y[1,2,1]
 BV BOUND     y[1,2,2]
 BV BOUND     y[1,3,1]
 BV BOUND     y[1,3,2]
 BV BOUND     y[1,4,1]
 BV BOUND     y[1,4,2]
 BV BOUND     y[2,1,1]
 BV BOUND     y[2,1,2]
 BV BOUND     y[2,2,1]
 BV BOUND     y[2,2,2]
 BV BOUND     y[2,3,1]
 BV BOUND     y[2,3,2]
 BV BOUND     y[2,4,1]
 BV BOUND     y[2,4,2]
 BV BOUND     y[3,1,1]
 BV BOUND     y[3,1,2]
 BV BOUND     y[3,2,1]
 BV BOUND     y[3,2,2]
 BV BOUND     y[3,3,1]
 BV BOUND     y[3,3,2]
 BV BOUND     y[3,4,1]
 BV BOUND     y[3,4,2]
 BV BOUND     z[1,1]  
 BV BOUND     z[1,2]  
 BV BOUND     z[2,1]  
 BV BOUND     z[2,2]  
 BV BOUND     z[3,1]  
 BV BOUND     z[3,2]  
 BV BOUND     z[4,1]  
 BV BOUND     z[4,2]  
ENDATA
